<number of tasks>
11

<cycle time>
62

<task times>
1 4
2 38
3 45
4 12
5 10
6 8
7 12
8 10
9 2
10 10
11 34

<precedence relations>
1,4
2,4
2,5
3,11
4,6
5,7
6,8
7,9
8,10
9,10
10,11

<setup times forward>
1,2:4
1,5:4
1,7:4
1,9:4
2,1:4
2,3:4
2,4:4
3,2:4
3,5:4
3,6:6
3,7:4
3,8:6
3,9:4
3,10:6
3,11:6
4,5:4
4,6:6
4,7:4
4,9:4
5,1:4
5,3:4
5,4:4
5,6:2
5,8:2
6,3:6
6,5:2
6,7:2
6,9:2
7,1:4
7,3:4
7,4:4
7,6:2
7,8:2
8,3:6
8,5:2
8,7:2
8,9:2
9,1:4
9,3:4
9,4:4
9,6:2
9,8:2
9,10:2
10,3:6

<setup times backward>
1,2:4
1,5:4
1,7:4
1,9:4
3,2:4
3,5:4
3,6:6
3,7:4
3,8:6
3,9:4
3,10:6
4,2:4
4,5:4
4,7:4
4,9:4
5,6:2
5,8:2
7,6:2
7,8:2
9,6:2
9,8:2

<end>

<optimal SALBP-1 value>
3


<rand seed>
467321153

